c Output_time 26.03.2020 18:15:11_+0100 1585242911156411940
c ** Program information **
c program_name                          "QBRG_debug"
c version                               "0.3.20"
c date                                  "25.3.2020"
c gid_id                                "673970833836058123f633335630c185360d632e"
c author                                "Oliver Kullmann"
c url                                   "https://github.com/OKullmann/oklibrary/blob/master/Satisfiability/Transformers/Generators/Random/QBRG.cpp"
c ** Machine information **
c machine_name                          "chyna-Lenovo-G50-70"
c bogomips                              3791.08
c ** Compilation information **
c compiler_version                      "g++ 7.5.0"
c compilation_date                      "Mar_26_2020 11:16:30"
c compilation_options                   "--std=c++17 -pedantic -fmax-errors=5 -Wall -Wextra -g -D_GLIBCXX_DEBUG"
c NDEBUG                                0
c OPTIMIZE                              0
c ** Parameters **
c command-line                          "./QBRG_debug" "a40 e40 a40 40" "192*1,1|2-2,1|3-3,1|4-4,1" "" "1,t" ""
c output                                "QuBlRaGe_160_192_1585242911156253305.qdimacs"
c options                               "filtered,renamed"
c num_quantifier_blocks                 4
c  quantifier_blocks                    1:a1-40 2:e41-80 3:a81-120 4:e121-160
c num_clause-blocks                     1
c  clause-blocks                        192 * {1-40,1,1/2} | {41-80,1,1/2} | {81-120,1,1/2} | {121-160,1,1/2}
c num_e-seeds                           37+2=39
c  e-seeds                              1 0 1 0 5 160 2 40 0 40 1 40 0 40 1 192 4 1 1 1 1 2 2 2 1 1 2 3 3 1 1 2 4 4 1 1 2 1 1585242911156252741
p cnf 159 192
a 1 2 3 4 5 6 7 8 9 10 11 12 13 14 15 16 17 18 19 20 21 22 23 24 25 26 27 28 29 30 31 32 33 34 35 36 37 38 39 40 0
e 41 42 43 44 45 46 47 48 49 50 51 52 53 54 55 56 57 58 59 60 61 62 63 64 65 66 67 68 69 70 71 72 73 74 75 76 77 78 79 80 0
a 81 82 83 84 85 86 87 88 89 90 91 92 93 94 95 96 97 98 99 100 101 102 103 104 105 106 107 108 109 110 111 112 113 114 115 116 117 118 119 0
e 120 121 122 123 124 125 126 127 128 129 130 131 132 133 134 135 136 137 138 139 140 141 142 143 144 145 146 147 148 149 150 151 152 153 154 155 156 157 158 159 0
38 -54 -99 -120 0
8 55 104 -120 0
36 -79 99 120 0
-25 -80 -117 120 0
39 -79 88 -121 0
1 -80 -89 121 0
-20 -47 -94 121 0
-36 -42 -111 121 0
9 -79 84 -122 0
-17 -79 -93 -122 0
35 -71 -85 122 0
22 -79 92 122 0
11 -54 95 122 0
29 45 111 122 0
-38 54 96 -123 0
-19 49 -103 -123 0
39 -46 106 123 0
6 -52 -105 -124 0
7 -43 99 124 0
25 -71 113 124 0
-39 62 118 124 0
-30 58 -100 -125 0
-19 -80 -115 -125 0
40 -60 -100 125 0
40 -80 101 125 0
27 -68 -104 125 0
38 -62 115 125 0
-22 68 91 -126 0
19 56 -101 -126 0
-12 -47 -107 -126 0
-7 48 -107 -126 0
-34 -71 108 126 0
-29 45 -114 126 0
-9 50 88 -127 0
-36 45 89 -127 0
-28 -80 -108 -127 0
-12 57 119 -127 0
35 74 -87 127 0
-5 52 -89 127 0
39 44 111 127 0
27 -68 -89 128 0
11 66 89 128 0
-29 -58 -116 128 0
-22 74 -107 -129 0
36 -66 85 129 0
20 -43 89 129 0
-18 -41 116 129 0
-28 72 -89 -130 0
11 69 -91 -130 0
-34 -69 114 -130 0
37 63 89 130 0
37 43 -97 130 0
24 65 116 130 0
37 -53 -102 -131 0
35 -78 97 -132 0
11 -54 -107 -132 0
25 64 108 -132 0
-23 61 -83 132 0
-8 78 92 132 0
10 -64 94 132 0
32 55 -100 132 0
-1 54 -98 -133 0
6 -62 107 -133 0
4 -48 117 -133 0
14 66 -108 133 0
-18 61 -114 133 0
-21 69 104 -134 0
-39 43 -111 -134 0
-35 65 112 -134 0
-35 57 -89 -135 0
-20 -61 99 -135 0
14 66 98 135 0
33 45 89 136 0
-15 42 -95 136 0
35 -51 -105 136 0
20 42 -114 136 0
15 55 119 136 0
-25 -54 85 -137 0
-4 50 87 -137 0
28 58 -105 -137 0
20 -72 117 -137 0
40 -62 91 137 0
21 -62 91 -138 0
-11 -66 -103 -138 0
-28 -54 -82 138 0
2 65 -86 138 0
-29 66 105 138 0
-13 76 -114 138 0
20 48 81 -139 0
36 -43 106 -139 0
-16 -50 81 139 0
16 63 87 139 0
11 45 91 139 0
-4 -42 94 -140 0
38 63 -112 140 0
20 62 -118 140 0
-20 50 -84 -141 0
38 -46 -86 141 0
-32 -74 94 141 0
38 -64 98 141 0
16 45 109 141 0
6 69 111 141 0
25 -51 -115 141 0
13 59 -117 141 0
17 -62 84 -142 0
38 -51 117 142 0
33 -42 -91 -143 0
-38 -57 115 -143 0
-39 67 -118 -143 0
8 -72 85 144 0
-26 -72 -104 144 0
33 54 93 -145 0
19 -48 96 -145 0
40 43 -104 -145 0
-8 49 111 -145 0
33 -43 -87 145 0
35 -73 -106 145 0
-35 61 -109 145 0
1 71 -110 145 0
8 67 -116 145 0
-10 -45 -119 145 0
-17 -72 -86 -146 0
33 63 92 146 0
-36 -60 103 146 0
40 -61 -103 -147 0
-24 -43 117 -147 0
-32 61 93 147 0
17 57 106 147 0
13 70 -115 147 0
6 79 -85 -148 0
34 -43 116 -148 0
-22 64 -119 -148 0
36 75 -86 148 0
-39 -76 97 148 0
6 -52 -110 148 0
-36 -64 114 148 0
-6 45 -89 -149 0
7 65 -89 -149 0
-14 -68 -97 -149 0
-17 43 97 -149 0
-10 -45 117 -149 0
-1 -54 97 149 0
-24 -42 -115 149 0
-35 50 119 149 0
21 60 -85 -150 0
37 -51 -86 -150 0
-21 53 -98 -150 0
-27 51 101 -150 0
-11 -48 116 -150 0
26 -58 103 150 0
-26 56 99 -151 0
18 46 -118 -151 0
21 -53 -98 151 0
-21 -78 -101 151 0
-21 -73 106 151 0
17 -68 -109 151 0
-23 60 112 151 0
4 46 -115 151 0
37 -42 -85 -152 0
-3 -44 -90 -152 0
-6 44 -96 -152 0
-21 -41 -107 -152 0
32 77 104 152 0
-3 53 -118 152 0
22 67 -93 -153 0
32 -65 -110 -153 0
-21 61 -99 153 0
-4 55 94 154 0
3 69 -81 155 0
13 63 -98 155 0
20 52 97 -156 0
31 76 87 156 0
7 -61 -97 156 0
17 -57 -98 156 0
-21 -76 -105 156 0
-38 68 81 -157 0
21 -73 82 -157 0
-2 53 -112 -157 0
-18 80 -93 157 0
24 -71 -105 157 0
39 52 107 157 0
23 77 -108 157 0
-12 -76 110 157 0
-38 41 104 -158 0
27 -67 -99 158 0
-25 -65 102 158 0
12 -73 108 158 0
-18 -65 113 158 0
17 67 97 -159 0
-33 51 110 -159 0
3 -77 -88 159 0
-25 -71 119 159 0
